10	5
0	2	2	1
1	1	5
2	2	10	6
3	2	9	7
4	1	8
5	1	4
6	2	3	5
7	1	11
8	1	11
9	1	11
10	1	11
11	0
0	0	0	0	0	0	0
1	5	5	5	2	5	4
2	9	2	4	4	4	2
3	10	5	2	1	5	3
4	1	2	4	3	1	1
5	8	1	2	5	3	4
6	2	3	4	5	5	1
7	9	1	5	1	4	3
8	4	4	5	1	1	1
9	6	2	3	4	2	5
10	3	4	2	4	2	2
11	0	0	0	0	0	0
8	8	8	8	7
